18
1 0 14
2 0 30
2 1 6
3 0 6
3 1 21
3 2 18
4 0 5
4 1 14
4 2 25
4 3 17
5 0 10
5 1 11
5 2 20
5 3 20
5 4 10
6 0 13
6 1 24
6 2 16
6 3 2
6 4 32
6 5 29
7 0 17
7 1 28
7 2 16
7 3 1
7 4 10
7 5 17
7 6 25
8 0 32
8 1 25
8 2 7
8 3 22
8 4 23
8 5 32
8 6 2
8 7 6
9 0 20
9 1 33
9 2 19
9 3 4
9 4 27
9 5 6
9 6 25
9 7 24
9 8 13
10 0 12
10 1 7
10 2 27
10 3 13
10 4 9
10 5 24
10 6 18
10 7 7
10 8 1
10 9 5
11 0 29
11 1 31
11 2 9
11 3 14
11 4 26
11 5 27
11 6 27
11 7 3
11 8 17
11 9 32
11 10 15
12 0 33
12 1 13
12 2 16
12 3 4
12 4 16
12 5 3
12 6 6
12 7 11
12 8 18
12 9 13
12 10 31
12 11 26
13 0 29
13 1 22
13 2 27
13 3 1
13 4 15
13 5 29
13 6 1
13 7 10
13 8 15
13 9 19
13 10 11
13 11 4
13 12 13
14 0 10
14 1 32
14 2 6
14 3 26
14 4 17
14 5 20
14 6 25
14 7 27
14 8 19
14 9 3
14 10 11
14 11 29
14 12 25
14 13 12
15 0 11
15 1 27
15 2 9
15 3 12
15 4 23
15 5 9
15 6 23
15 7 26
15 8 18
15 9 17
15 10 1
15 11 13
15 12 5
15 13 22
15 14 27
16 0 33
16 1 23
16 2 3
16 3 25
16 4 2
16 5 11
16 6 15
16 7 22
16 8 6
16 9 22
16 10 28
16 11 29
16 12 19
16 13 25
16 14 20
16 15 12
17 0 22
17 1 4
17 2 7
17 3 33
17 4 22
17 5 8
17 6 27
17 7 10
17 8 32
17 9 5
17 10 30
17 11 32
17 12 17
17 13 4
17 14 28
17 15 4
17 16 12
